4 6 7 6 4 9 6 8 1 5 3 7 -1 1 -1 
3 2 0 6 4 -1 7 6 7 4 3 0 1 5 -1 
5 7 8 7 7 6 6 -1 8 9 6 8 1 5 -1 
6 7 6 7 2 0 4 6 1 8 4 -1 0 8 -1 
5 3 2 9 5 5 8 6 8 1 1 1 5 2 -1 
7 3 7 5 9 2 2 4 7 5 1 1 8 8 -1 
5 8 9 -1 3 9 -1 6 8 2 -1 9 -1 1 -1 
9 2 7 0 2 8 8 7 9 5 0 7 8 3 -1 
1 6 7 8 6 5 -1 3 1 -1 7 8 -1 0 -1 
0 1 9 0 5 1 1 2 0 0 7 9 4 9 -1 
7 7 -1 0 9 6 3 4 5 6 3 4 2 7 -1 
7 8 5 5 3 7 -1 1 4 5 9 9 3 1 -1 
3 8 8 -1 4 9 0 6 1 3 5 0 6 7 -1 
2 4 9 4 7 5 -1 2 3 0 0 9 1 0 -1 
9 8 6 1 6 4 1 7 7 1 0 3 8 0 -1 
